/*********************************************
 * OPL 12.6.0.0 Data
 * Author: Adrian Rodriguez Bazaga, Pau Rodriguez Esmerats
 * Creation Date: 06/12/2017 at 23:03:02
 *********************************************/

nNurses=211;
maxConsec=2;
maxPresence=7;
maxHours=5;
minHours=1;
hours=24;
demand= [34 40 65 63 40 65 63 42 51 33 5 5 5 6 5 4 4 2 0 1 28 49 21 43  ];
